#settings
units              real
atom_style         bond
neigh_modify       delay 0 every 1

#atom and FF definitions
read_data          "data.vacf"
pair_style         lj/cut 14.0
pair_coeff         1 1 0 3.75

#groups
group atm1 id 1
group atm2 id 2

#run settings
timestep           1
thermo             1
dump               1 all custom 1 traj.dump id vx vy vz

#compute vacf
compute            1 all vacf

#NVT with Nose-Hoover thermostat chain
#fix                1 all nvt temp 350 350 100.0 # no need to time integrate for this test since I explicitly assign velocities
fix                2 all ave/time 1 1 1 c_1[1] c_1[2] c_1[3] c_1[4] mode scalar file lammps.vacf

#run
velocity           atm1 set 1.0 3.0 1.0
velocity           atm2 set 2.0 2.0 3.0
run                1
velocity           atm1 set 2.0 2.0 3.0
velocity           atm2 set 3.0 1.0 2.0
run                1
velocity           atm1 set 3.0 1.0 2.0
velocity           atm2 set 1.0 3.0 1.0
run                1
